15
1 0 1
2 1 3
3 2 4
4 0 4
5 1 2
5 2 1
5 4 2
6 0 3
6 1 1
6 2 4
6 3 5
7 2 4
7 3 5
7 4 1
7 6 5
8 4 4
9 3 1
9 4 1
9 5 1
9 6 1
9 7 5
10 4 4
10 9 2
11 0 2
11 3 1
11 4 1
11 5 2
11 9 2
12 2 3
12 4 1
12 8 3
12 10 4
13 0 4
13 2 4
13 3 4
13 4 5
13 5 3
13 10 3
13 11 1
14 0 2
14 1 2
14 5 2
14 6 5
14 8 3
14 12 5
14 13 3
